c User generated cnf file
p cnf 15 33
15 3 -15 0 
7 -12 12 0 
4 -13 12 0 
5 9 -7 0 
5 9 -10 0 
1 -8 4 0 
5 -13 4 0 
13 13 -3 0 
11 4 -1 0 
1 2 -7 0 
7 -6 10 0 
5 -11 10 0 
12 -8 5 0 
13 13 -7 0 
6 -11 1 0 
11 6 -15 0 
9 -6 5 0 
11 8 -13 0 
14 9 -10 0 
5 13 -5 0 
10 7 -7 0 
15 -1 3 0 
9 -9 14 0 
15 -5 9 0 
7 -7 3 0 
5 7 -5 0 
3 -9 13 0 
12 8 -8 0 
15 -14 14 0 
2 14 -13 0 
9 -11 2 0 
14 14 -1 0 
3 -14 2 0 
